************************************************************************
file with basedata            : md379_.bas
initial value random generator: 1821014823
************************************************************************
projects                      :  1
jobs (incl. supersource/sink ):  22
horizon                       :  155
RESOURCES
  - renewable                 :  2   R
  - nonrenewable              :  2   N
  - doubly constrained        :  0   D
************************************************************************
PROJECT INFORMATION:
pronr.  #jobs rel.date duedate tardcost  MPM-Time
    1     20      0       25        1       25
************************************************************************
PRECEDENCE RELATIONS:
jobnr.    #modes  #successors   successors
   1        1          3           2   3   4
   2        3          3           8  10  17
   3        3          3           5   6   7
   4        3          3          10  14  15
   5        3          2          10  16
   6        3          3          12  19  20
   7        3          3           9  13  16
   8        3          3          14  18  21
   9        3          1          11
  10        3          1          18
  11        3          2          12  20
  12        3          1          21
  13        3          2          14  15
  14        3          1          19
  15        3          1          17
  16        3          3          17  19  21
  17        3          1          18
  18        3          1          20
  19        3          1          22
  20        3          1          22
  21        3          1          22
  22        1          0        
************************************************************************
REQUESTS/DURATIONS:
jobnr. mode duration  R 1  R 2  N 1  N 2
------------------------------------------------------------------------
  1      1     0       0    0    0    0
  2      1     3       0   10    9    9
         2     3       3    0    7    9
         3     5       0   10    5    4
  3      1     7       0    6    6    9
         2     8       9    0    4    7
         3     9       0    5    1    3
  4      1     3       0    8    2    5
         2     9       0    6    2    3
         3     9       7    0    1    4
  5      1     3       0    3    9    5
         2     4       0    3    7    5
         3     9       0    1    3    4
  6      1     4       0    6    8    7
         2     7       1    0    6    4
         3     8       0    6    6    4
  7      1     2       0    8    2    7
         2     3       0    5    2    5
         3     4       2    0    2    4
  8      1     1       0    3    7    8
         2     4       6    0    6    4
         3     9       6    0    5    3
  9      1     2       0    5    3    8
         2     2       6    0    3    9
         3     8       0    5    3    6
 10      1     6       8    0    7    2
         2     6       0    5    9    2
         3     9       8    0    4    1
 11      1     1       9    0   10    3
         2     3       8    0    8    3
         3     5       0    6    5    2
 12      1     2       5    0    5    3
         2     7       5    0    4    3
         3     9       0    5    1    1
 13      1     2       1    0    9    4
         2     3       0    9    9    3
         3     5       0    6    8    2
 14      1     1       0    4    3    7
         2     2       4    0    3    7
         3     8       0    3    2    6
 15      1     3      10    0   10   10
         2     9       0    5    8    6
         3     9       9    0    8    3
 16      1     6       3    0    8    8
         2     9       0    4    6    7
         3    10       0    3    2    7
 17      1     2       6    0    8   10
         2     6       5    0    7    8
         3     9       4    0    7    8
 18      1     4       0    8    8    3
         2     6       8    0    7    3
         3     7       8    0    6    2
 19      1     1       9    0    8    9
         2     8       0    5    5    9
         3     8       0    6    4    9
 20      1     3       0    8    1    4
         2     4       2    0    1    3
         3     5       0    4    1    1
 21      1     5       4    0    6    9
         2     8       3    0    5    9
         3    10       1    0    5    8
 22      1     0       0    0    0    0
************************************************************************
RESOURCEAVAILABILITIES:
  R 1  R 2  N 1  N 2
   27   22  131  131
************************************************************************
MAXIMAL LAGS:
from  to  type  delay
    1   12   ES      0
    1    2   ES      0
    2   12   ES      0
    1    3   ES      0
    3   12   ES      0
    1    4   ES      0
    4   12   ES      0
    1    5   ES      0
    5   12   ES      0
    1    6   ES      0
    6   12   ES      0
    1    7   ES      0
    7   12   ES      0
    1    8   ES      0
    8   12   ES      0
    1    9   ES      0
    9   12   ES      0
    1   10   ES      0
   10   12   ES      0
    1   11   ES      0
   11   12   ES      0
    1   12   ES      0
    2    8   SS      4
    2    8   SE     10
    2    8   ES     -8
    2    8   EE     -4
    2   10   SS    -11
    2   10   SE      4
    2   10   ES      7
    2   10   EE     -5
    2   17   SS      8
    2   17   SE     -1
    2   17   ES    -10
    2   17   EE     10
    3    5   SS     10
    3    5   SE     -5
    3    5   ES     -6
    3    5   EE     11
    3    6   SS     12
    3    6   SE     -9
    3    6   ES     -1
    3    6   EE      2
    3    7   SS      6
    3    7   SE     -7
    3    7   ES    -11
    3    7   EE      5
    4   10   SS     -7
    4   10   SE      9
    4   10   ES     -5
    4   10   EE      1
    4   14   SS      0
    4   14   SE    -10
    4   14   ES     10
    4   14   EE      0
    4   15   SS      8
    4   15   SE     -7
    4   15   ES    -12
    4   15   EE    -10
    5   10   SS      2
    5   10   SE     -8
    5   10   ES      6
    5   10   EE     -2
    5   16   SS     11
    5   16   SE     -9
    5   16   ES      9
    5   16   EE     -8
    6   19   SS      0
    6   19   SE      8
   19    6   SE      0
    6   19   ES      0
    6   19   EE    -11
    6   20   SS      9
    6   20   SE      5
    6   20   ES      1
    6   20   EE      6
    7    9   SS      1
    7    9   SE     12
    7    9   ES     -9
    7    9   EE    -10
    7   13   SS    -12
    7   13   SE      5
    7   13   ES     -4
    7   13   EE    -12
    7   16   SS      9
    7   16   SE     -5
    7   16   ES      7
    7   16   EE    -12
    8   14   SS     11
    8   14   SE      6
    8   14   ES     -7
    8   14   EE      9
    8   18   SS      8
    8   18   SE      9
    8   18   ES      3
    8   18   EE      0
    8   21   SS      3
    8   21   SE     -6
    8   21   ES     12
    8   21   EE      1
    9   11   SS    -12
    9   11   SE     12
    9   11   ES      4
    9   11   EE      1
   10   18   SS     -5
   10   18   SE     -6
   10   18   ES     -6
   10   18   EE      6
   11   20   SS      7
   11   20   SE      8
   11   20   ES     -1
   11   20   EE    -11
   12   21   SS      0
   12   21   SE      0
   12   21   ES     10
   12   21   EE      0
   13   14   SS      8
   13   14   SE      3
   13   14   ES      1
   13   14   EE    -12
   13   15   SS     10
   13   15   SE     -2
   13   15   ES     -1
   13   15   EE    -12
   14   19   SS      4
   14   19   SE      8
   14   19   ES    -12
   14   19   EE      8
   15   17   SS    -11
   15   17   SE     -2
   15   17   ES    -11
   15   17   EE      9
   16   17   SS      7
   16   17   SE    -11
   16   17   ES      5
   16   17   EE     -6
   16   19   SS    -11
   16   19   SE      1
   16   19   ES      8
   16   19   EE      7
   16   21   SS     -7
   16   21   SE     -1
   16   21   ES    -11
   16   21   EE     10
   17   18   SS     10
   17   18   SE      6
   17   18   ES     12
   17   18   EE      4
   18   20   SS    -11
   18   20   SE     -1
   18   20   ES     -1
   18   20   EE      1
   19   22   SS     -3
   19   22   SE     -3
   19   22   ES    -10
   19   22   EE      6
   20   22   SS      6
   20   22   SE     11
   20   22   ES     -3
   20   22   EE     12
   21   22   SS    -10
   21   22   SE     -8
   21   22   ES     -4
   21   22   EE     -6
************************************************************************
